\ Problem written by TinyHiGHS
Maximize
 obj: +0.662572624040404 c43 +1.3096633476692852 c44 +2.281634457074448 c45 +0.3848879730190796 c46 +0.7289109046464645 c47 +1.5343013123905722 c48 +0.7015474927497194 c49 +2.0868201720164605 c50 +2.7983289848260378 c51 +1.3132636945903478 c52 +2.7431820006434715 c53 +3.1832768873176205 c54 +1.640184529786756 c55 +2.663492208260381 c56 +3.34649722698092 c57 +1.6463052209652074 c58 +3.230022811986532 c59 +3.9321103180695847 c60 +1.2533163278563408 c61 +2.9560886136026934 c62 +3.775010633580246 c63 +0.662572624040404 c64 +1.3096633476692852 c65 +2.281634457074448 c66 +0.3848879730190796 c67 +0.7289109046464645 c68 +1.5343013123905722 c69 +0.7015474927497194 c70 +2.0868201720164605 c71 +2.7983289848260378 c72 +1.3132636945903478 c73 +2.7431820006434715 c74 +3.1832768873176205 c75 +1.640184529786756 c76 +2.663492208260381 c77 +3.34649722698092 c78 +1.6463052209652074 c79 +3.230022811986532 c80 +3.9321103180695847 c81 +1.2533163278563408 c82 +2.9560886136026934 c83 +3.775010633580246 c84 +1.0 c106
Subject To
 r0: -1.0 c0 +1.0 c1 +3.0 c22 = 0.000108
 r1: -1.0 c1 +1.0 c2 +8.0 c23 = 0.000288
 r2: -1.0 c2 +1.0 c3 +13.0 c24 = 0.000468
 r3: -1.0 c3 +1.0 c4 +3.0 c25 = 0.00032399999999999996
 r4: -1.0 c4 +1.0 c5 +8.0 c26 = 0.000864
 r5: -1.0 c5 +1.0 c6 +13.0 c27 = 0.0014039999999999999
 r6: -1.0 c6 +1.0 c7 +6.0 c28 = 0.0
 r7: -1.0 c7 +1.0 c8 +8.0 c29 = 0.0
 r8: -1.0 c8 +1.0 c9 +10.0 c30 = 0.0
 r9: -1.0 c9 +1.0 c10 +6.0 c31 = 0.0028079999999999997
 r10: -1.0 c10 +1.0 c11 +8.0 c32 = 0.003744
 r11: -1.0 c11 +1.0 c12 +10.0 c33 = 0.00468
 r12: -1.0 c12 +1.0 c13 +6.0 c34 = 0.007344
 r13: -1.0 c13 +1.0 c14 +8.0 c35 = 0.009792
 r14: -1.0 c14 +1.0 c15 +10.0 c36 = 0.012240000000000001
 r15: -1.0 c15 +1.0 c16 +6.0 c37 = 0.0
 r16: -1.0 c16 +1.0 c17 +8.0 c38 = 0.0
 r17: -1.0 c17 +1.0 c18 +10.0 c39 = 0.0
 r18: -1.0 c18 +1.0 c19 +6.0 c40 = 0.0
 r19: -1.0 c19 +1.0 c20 +8.0 c41 = 0.0
 r20: -1.0 c20 +1.0 c21 +10.0 c42 = 0.0
 r21: -1.0 c22 +1.0 c43 +1.0 c64 +1.0 c85 = 0.0
 r22: -1.0 c23 +1.0 c44 +1.0 c65 +1.0 c86 = 0.0
 r23: -1.0 c24 +1.0 c45 +1.0 c66 +1.0 c87 = 0.0
 r24: -1.0 c25 +1.0 c46 +1.0 c67 +1.0 c88 = 0.0
 r25: -1.0 c26 +1.0 c47 +1.0 c68 +1.0 c89 = 0.0
 r26: -1.0 c27 +1.0 c48 +1.0 c69 +1.0 c90 = 0.0
 r27: -1.0 c28 +1.0 c49 +1.0 c70 +1.0 c91 = 0.0
 r28: -1.0 c29 +1.0 c50 +1.0 c71 +1.0 c92 = 0.0
 r29: -1.0 c30 +1.0 c51 +1.0 c72 +1.0 c93 = 0.0
 r30: -1.0 c31 +1.0 c52 +1.0 c73 +1.0 c94 = 0.0
 r31: -1.0 c32 +1.0 c53 +1.0 c74 +1.0 c95 = 0.0
 r32: -1.0 c33 +1.0 c54 +1.0 c75 +1.0 c96 = 0.0
 r33: -1.0 c34 +1.0 c55 +1.0 c76 +1.0 c97 = 0.0
 r34: -1.0 c35 +1.0 c56 +1.0 c77 +1.0 c98 = 0.0
 r35: -1.0 c36 +1.0 c57 +1.0 c78 +1.0 c99 = 0.0
 r36: -1.0 c37 +1.0 c58 +1.0 c79 +1.0 c100 = 0.0
 r37: -1.0 c38 +1.0 c59 +1.0 c80 +1.0 c101 = 0.0
 r38: -1.0 c39 +1.0 c60 +1.0 c81 +1.0 c102 = 0.0
 r39: -1.0 c40 +1.0 c61 +1.0 c82 +1.0 c103 = 0.0
 r40: -1.0 c41 +1.0 c62 +1.0 c83 +1.0 c104 = 0.0
 r41: -1.0 c42 +1.0 c63 +1.0 c84 +1.0 c105 = 0.0
 r42: -0.5430810300000001 c21 +1.0 c106 <= 0.0
 r43: -0.43477984000000003 c21 +1.0 c106 <= 0.0332976914698907
 r44: -0.41477392999999985 c21 +1.0 c106 <= 0.043159630211896505
 r45: -0.37074440999999997 c21 +1.0 c106 <= 0.0703243338393604
 r46: -0.3558226200000002 c21 +1.0 c106 <= 0.08308515230061081
 r47: -0.33797497000000004 c21 +1.0 c106 <= 0.10096604711826596
 r48: -0.3283975499999996 c21 +1.0 c106 <= 0.1124101455436885
 r49: -0.3195182300000006 c21 +1.0 c106 <= 0.12463687861462308
 r50: -0.31483214000000015 c21 +1.0 c106 <= 0.13204699085718785
 r51: -0.31074255999999956 c21 +1.0 c106 <= 0.1389362834206168
 r52: -0.3013858100000001 c21 +1.0 c106 <= 0.15643340592061583
 r53: -0.2958921000000007 c21 +1.0 c106 <= 0.1681206070092205
 r54: -0.29072939 c21 +1.0 c106 <= 0.18012702242216527
 r55: -0.2861248300000002 c21 +1.0 c106 <= 0.19180663206398063
 r56: -0.2828206099999997 c21 +1.0 c106 <= 0.20076267940165404
 r57: -0.27903725999999945 c21 +1.0 c106 <= 0.21173734276630973
 r58: -0.27544607000000015 c21 +1.0 c106 <= 0.22282858943370754
 r59: -0.2722313300000009 c21 +1.0 c106 <= 0.23337917290783117
 r60: -0.2695997399999998 c21 +1.0 c106 <= 0.2425154010166739
 r61: -0.26671729000000016 c21 +1.0 c106 <= 0.25303701685699265
 r62: -0.26251492000000026 c21 +1.0 c106 <= 0.2691630465132273
 r63: -0.25879028000000037 c21 +1.0 c106 <= 0.28481899566881075
 r64: -0.25502146999999986 c21 +1.0 c106 <= 0.301385814964346
 r65: -0.25056767999999974 c21 +1.0 c106 <= 0.3226762748727896
 r66: -0.2464393599999999 c21 +1.0 c106 <= 0.3439515819007566
 r67: -0.24239256000000012 c21 +1.0 c106 <= 0.36634555856799556
 r68: -0.23870162999999994 c21 +1.0 c106 <= 0.3881498637383136
 r69: -0.23494804000000002 c21 +1.0 c106 <= 0.4117440821669731
 r70: -0.23185175999999982 c21 +1.0 c106 <= 0.43234962399914645
 r71: -0.22771845000000038 c21 +1.0 c106 <= 0.46143474067470747
 r72: -0.2234969200000002 c21 +1.0 c106 <= 0.4935190749366778
 r73: -0.21838487999999978 c21 +1.0 c106 <= 0.5352825993574652
 r74: -0.21469836999999986 c21 +1.0 c106 <= 0.5681814894199526
 r75: -0.21113177999999988 c21 +1.0 c106 <= 0.6015291059199523
 r76: -0.20693479000000034 c21 +1.0 c106 <= 0.6443101455862776
 r77: -0.20269074 c21 +1.0 c106 <= 0.6899671983491311
 r78: -0.19765124000000003 c21 +1.0 c106 <= 0.7489380162891308
 r79: -0.19255717000000006 c21 +1.0 c106 <= 0.8145440344121306
 r80: -0.18885849000000007 c21 +1.0 c106 <= 0.8642161861120905
 r81: -0.18400854000000016 c21 +1.0 c106 <= 0.9380217261223889
 r82: -0.1802402900000001 c21 +1.0 c106 <= 0.99744185858339
 r83: -0.17555640999999986 c21 +1.0 c106 <= 1.0739617785034739
 r84: +1.0 c21 >= -Inf
 r85: +1.0 c21 >= 0.0
 r86: +1.0 c21 <= 18.7
 r87: +1.0 c21 >= -Inf
Bounds
 c0 = 18.7
 0.0 <= c1 <= 18.7
 0.0 <= c2 <= 18.7
 0.0 <= c3 <= 18.7
 0.0 <= c4 <= 18.7
 0.0 <= c5 <= 18.7
 0.0 <= c6 <= 18.7
 0.0 <= c7 <= 18.7
 0.0 <= c8 <= 18.7
 0.0 <= c9 <= 18.7
 0.0 <= c10 <= 18.7
 0.0 <= c11 <= 18.7
 0.0 <= c12 <= 18.7
 0.0 <= c13 <= 18.7
 0.0 <= c14 <= 18.7
 0.0 <= c15 <= 18.7
 0.0 <= c16 <= 18.7
 0.0 <= c17 <= 18.7
 0.0 <= c18 <= 18.7
 0.0 <= c19 <= 18.7
 0.0 <= c20 <= 18.7
 0.0 <= c21 <= 18.7
 0.0 <= c22 <= 0.00936
 0.0 <= c23 <= 0.00936
 0.0 <= c24 <= 0.00936
 0.0 <= c25 <= 0.00936
 0.0 <= c26 <= 0.00936
 0.0 <= c27 <= 0.00936
 0.0 <= c28 <= 0.00936
 0.0 <= c29 <= 0.00936
 0.0 <= c30 <= 0.00936
 0.0 <= c31 <= 0.00936
 0.0 <= c32 <= 0.00936
 0.0 <= c33 <= 0.00936
 0.0 <= c34 <= 0.00936
 0.0 <= c35 <= 0.00936
 0.0 <= c36 <= 0.00936
 0.0 <= c37 <= 0.00936
 0.0 <= c38 <= 0.00936
 0.0 <= c39 <= 0.00936
 0.0 <= c40 <= 0.00936
 0.0 <= c41 <= 0.00936
 0.0 <= c42 <= 0.00936
 0.0 <= c43 <= 0.00936
 0.0 <= c44 <= 0.00936
 0.0 <= c45 <= 0.00936
 0.0 <= c46 <= 0.00936
 0.0 <= c47 <= 0.00936
 0.0 <= c48 <= 0.00936
 0.0 <= c49 <= 0.00936
 0.0 <= c50 <= 0.00936
 0.0 <= c51 <= 0.00936
 0.0 <= c52 <= 0.00936
 0.0 <= c53 <= 0.00936
 0.0 <= c54 <= 0.00936
 0.0 <= c55 <= 0.00936
 0.0 <= c56 <= 0.00936
 0.0 <= c57 <= 0.00936
 0.0 <= c58 <= 0.00936
 0.0 <= c59 <= 0.00936
 0.0 <= c60 <= 0.00936
 0.0 <= c61 <= 0.00936
 0.0 <= c62 <= 0.00936
 0.0 <= c63 <= 0.00936
 c64 = 0.0
 c65 = 0.0
 c66 = 0.0
 c67 = 0.0
 c68 = 0.0
 c69 = 0.0
 c70 = 0.0
 c71 = 0.0
 c72 = 0.0
 c73 = 0.0
 c74 = 0.0
 c75 = 0.0
 c76 = 0.0
 c77 = 0.0
 c78 = 0.0
 c79 = 0.0
 c80 = 0.0
 c81 = 0.0
 c82 = 0.0
 c83 = 0.0
 c84 = 0.0
 c85 = 0.0
 c86 = 0.0
 c87 = 0.0
 c88 = 0.0
 c89 = 0.0
 c90 = 0.0
 c91 = 0.0
 c92 = 0.0
 c93 = 0.0
 c94 = 0.0
 c95 = 0.0
 c96 = 0.0
 c97 = 0.0
 c98 = 0.0
 c99 = 0.0
 c100 = 0.0
 c101 = 0.0
 c102 = 0.0
 c103 = 0.0
 c104 = 0.0
 c105 = 0.0
 c106 free
End
